c A SAT instance generated from a 3-CNF formula that had 30 clauses and 10 variables
p cnf 10 30
-9 10 -6 0
3 8 1 0
5 -7 -3 0
9 -4 3 0
-5 -8 9 0
3 -7 2 0
-2 10 -4 0
-3 -4 1 0
7 -1 2 0
8 -9 -1 0
-1 4 2 0
8 10 2 0
8 5 2 0
-10 -6 1 0
5 -10 -7 0
-7 9 3 0
4 1 -6 0
-2 -4 -9 0
-6 4 -9 0
1 6 -9 0
8 -5 -1 0
8 -7 6 0
3 -4 -1 0
-6 7 -4 0
-3 7 -8 0
-7 -4 10 0
2 8 1 0
4 2 -5 0
-4 7 2 0
9 1 10 0
